certificates/rado_a11_c70_N31.cnf
c Rad2 upper bound instance: x1 + 11*x2 - x3 = 70, interval [1,31]
p cnf 31 172
1 7 8 0
-1 -7 -8 0
1 8 19 0
-1 -8 -19 0
1 9 30 0
-1 -9 -30 0
2 7 9 0
-2 -7 -9 0
2 8 20 0
-2 -8 -20 0
2 9 31 0
-2 -9 -31 0
3 7 10 0
-3 -7 -10 0
3 8 21 0
-3 -8 -21 0
4 7 11 0
-4 -7 -11 0
4 8 22 0
-4 -8 -22 0
1 5 6 0
-1 -5 -6 0
5 7 12 0
-5 -7 -12 0
5 8 23 0
-5 -8 -23 0
2 6 0
-2 -6 0
6 7 13 0
-6 -7 -13 0
6 8 24 0
-6 -8 -24 0
3 6 7 0
-3 -6 -7 0
7 14 0
-7 -14 0
7 8 25 0
-7 -8 -25 0
4 6 8 0
-4 -6 -8 0
7 8 15 0
-7 -8 -15 0
8 26 0
-8 -26 0
5 6 9 0
-5 -6 -9 0
7 9 16 0
-7 -9 -16 0
8 9 27 0
-8 -9 -27 0
6 10 0
-6 -10 0
7 10 17 0
-7 -10 -17 0
8 10 28 0
-8 -10 -28 0
6 7 11 0
-6 -7 -11 0
7 11 18 0
-7 -11 -18 0
8 11 29 0
-8 -11 -29 0
6 8 12 0
-6 -8 -12 0
7 12 19 0
-7 -12 -19 0
8 12 30 0
-8 -12 -30 0
6 9 13 0
-6 -9 -13 0
7 13 20 0
-7 -13 -20 0
8 13 31 0
-8 -13 -31 0
6 10 14 0
-6 -10 -14 0
7 14 21 0
-7 -14 -21 0
6 11 15 0
-6 -11 -15 0
7 15 22 0
-7 -15 -22 0
1 5 16 0
-1 -5 -16 0
6 12 16 0
-6 -12 -16 0
7 16 23 0
-7 -16 -23 0
2 5 17 0
-2 -5 -17 0
6 13 17 0
-6 -13 -17 0
7 17 24 0
-7 -17 -24 0
3 5 18 0
-3 -5 -18 0
6 14 18 0
-6 -14 -18 0
7 18 25 0
-7 -18 -25 0
4 5 19 0
-4 -5 -19 0
6 15 19 0
-6 -15 -19 0
7 19 26 0
-7 -19 -26 0
5 20 0
-5 -20 0
6 16 20 0
-6 -16 -20 0
7 20 27 0
-7 -20 -27 0
5 6 21 0
-5 -6 -21 0
6 17 21 0
-6 -17 -21 0
7 21 28 0
-7 -21 -28 0
5 7 22 0
-5 -7 -22 0
6 18 22 0
-6 -18 -22 0
7 22 29 0
-7 -22 -29 0
6 19 23 0
-6 -19 -23 0
7 23 30 0
-7 -23 -30 0
5 9 24 0
-5 -9 -24 0
6 20 24 0
-6 -20 -24 0
7 24 31 0
-7 -24 -31 0
5 10 25 0
-5 -10 -25 0
6 21 25 0
-6 -21 -25 0
5 11 26 0
-5 -11 -26 0
6 22 26 0
-6 -22 -26 0
1 4 27 0
-1 -4 -27 0
5 12 27 0
-5 -12 -27 0
6 23 27 0
-6 -23 -27 0
2 4 28 0
-2 -4 -28 0
5 13 28 0
-5 -13 -28 0
6 24 28 0
-6 -24 -28 0
3 4 29 0
-3 -4 -29 0
5 14 29 0
-5 -14 -29 0
6 25 29 0
-6 -25 -29 0
4 30 0
-4 -30 0
5 15 30 0
-5 -15 -30 0
6 26 30 0
-6 -26 -30 0
4 5 31 0
-4 -5 -31 0
5 16 31 0
-5 -16 -31 0
6 27 31 0
-6 -27 -31 0
