certificates/rado_a11_c70_N31.drat
6 -28 4 0
-6 -29 4 -31 0
6 4 -31 0
-30 -31 0
-6 -31 0
d -6 -29 4 -31 0
-4 -31 0
d -5 -4 -31 0
-31 0
-4 6 0
6 0
-2 0
-10 0
9 0
-13 0
-5 0
8 0
20 0
4 0
16 0
28 0
17 0
25 0
-22 0
-24 0
-26 0
-27 0
-12 0
0
